RT is False
Default write of storage_offers_DA.csv just to have a file (but constraint should be inactive)
Reading model...
...model read.
creating competitive generators file...
...competitive generators recorded.
Loading data...
.. day-ahead data with real-time VRE data read.
Compiling instance...
...instance created.
Creating Offer Mitigation (model will solve as dispatch if TRUE)...
NOTE: storage offers will not be mitigated
...storage offer mitigation file created
Converting model to MPEC...
...converted
NOTE: initial MIP solve with only storage competitive to get feasible solution
Solving...

Welcome to IBM(R) ILOG(R) CPLEX(R) Interactive Optimizer 12.9.0.0
  with Simplex, Mixed Integer & Barrier Optimizers
5725-A06 5725-A29 5724-Y48 5724-Y49 5724-Y54 5724-Y55 5655-Y21
Copyright IBM Corp. 1988, 2019.  All Rights Reserved.

Type 'help' for a list of available commands.
Type 'help' followed by a command name for more
information on commands.

CPLEX> Logfile 'cplex.log' closed.
Logfile 'C:\Users\llavin\Desktop\test919\logs\tmpjzfw30h8.cplex.log' open.
CPLEX> New value for parallel optimization mode: -1
CPLEX> New value for mixed integer optimality gap tolerance: 0.01
CPLEX> New value for integrality tolerance: 1e-09
CPLEX> New value for feasibility tolerance: 0.01
CPLEX> New value for deterministic time limit in ticks: 100000
CPLEX> Problem 'C:\Users\llavin\Desktop\test919\logs\tmp548x7gtg.pyomo.lp' read.
Read time = 0.23 sec. (13.86 ticks)
CPLEX> Problem name         : C:\Users\llavin\Desktop\test919\logs\tmp548x7gtg.pyomo.lp
Objective sense      : Maximize
Variables            :   53321  [Nneg: 1,  Box: 21806,  Free: 4416,
                                 Binary: 27098]
Objective nonzeros   :    9029
Linear constraints   :  122164  [Less: 40983,  Greater: 58612,  Equal: 22569]
  Nonzeros           :  288457
  RHS nonzeros       :   66982

Variables            : Min LB: -5000.000        Max UB: 1000000.       
Objective nonzeros   : Min   : 0.2250000        Max   : 2500.000       
Linear constraints   :
  Nonzeros           : Min   : 0.2250000        Max   : 1000000.       
  RHS nonzeros       : Min   : 0.2250000        Max   : 1000000.       
CPLEX> CPXPARAM_Parallel                                -1
CPXPARAM_Simplex_Tolerances_Feasibility          0.01
CPXPARAM_DetTimeLimit                            100000
CPXPARAM_MIP_Tolerances_MIPGap                   0.01
CPXPARAM_MIP_Tolerances_Integrality              1.0000000000000001e-09
Tried aggregator 3 times.
MIP Presolve eliminated 88098 rows and 18978 columns.
MIP Presolve added 3351 rows and 0 columns.
MIP Presolve modified 24545 coefficients.
Aggregator did 12842 substitutions.
Reduced MIP has 24575 rows, 20945 columns, and 68825 nonzeros.
Reduced MIP has 8293 binaries, 0 generals, 0 SOSs, and 0 indicators.
Presolve time = 0.30 sec. (171.47 ticks)
Probing fixed 419 vars, tightened 2928 bounds.
Probing time = 1.23 sec. (904.33 ticks)
Tried aggregator 2 times.
MIP Presolve eliminated 940 rows and 845 columns.
MIP Presolve modified 2211 coefficients.
Aggregator did 57 substitutions.
Reduced MIP has 23578 rows, 20043 columns, and 65924 nonzeros.
Reduced MIP has 7871 binaries, 0 generals, 0 SOSs, and 0 indicators.
Presolve time = 0.09 sec. (66.67 ticks)
Probing fixed 0 vars, tightened 3 bounds.
Probing time = 0.06 sec. (30.48 ticks)
Clique table members: 6483.
MIP emphasis: balance optimality and feasibility.
MIP search method: dynamic search.
Parallel mode: opportunistic, using up to 32 threads.
Root relaxation solution time = 0.34 sec. (421.68 ticks)

        Nodes                                         Cuts/
   Node  Left     Objective  IInf  Best Integer    Best Bound    ItCnt     Gap

      0     0        0.0000   655                      0.0000     3176         
*     0     0      integral     0        0.0000        0.0000     3176    0.00%
Elapsed time = 3.63 sec. (2550.24 ticks, tree = 0.01 MB, solutions = 1)

Root node processing (before b&c):
  Real time             =    3.66 sec. (2552.16 ticks)
Parallel b&c, 32 threads:
  Real time             =    0.00 sec. (0.00 ticks)
  Sync time (average)   =    0.00 sec.
  Wait time (average)   =    0.00 sec.
                          ------------
Total (root+branch&cut) =    3.66 sec. (2552.16 ticks)

Solution pool: 1 solution saved.

MIP - Integer optimal solution:  Objective =  9.5860741567e-10
Solution time =    3.66 sec.  Iterations = 3176  Nodes = 0
Deterministic time = 2552.31 ticks  (698.12 ticks/sec)

CPLEX> Incumbent solution written to file 'C:\Users\llavin\Desktop\test919\logs\tmpcvw1pgow.cplex.sol'.
CPLEX> NOTE: no warmstart specified for MIP iteration, default behavior is true
NOTE: resolving with all competitive generators using storage-only solution to warmstart
Solving...

Welcome to IBM(R) ILOG(R) CPLEX(R) Interactive Optimizer 12.9.0.0
  with Simplex, Mixed Integer & Barrier Optimizers
5725-A06 5725-A29 5724-Y48 5724-Y49 5724-Y54 5724-Y55 5655-Y21
Copyright IBM Corp. 1988, 2019.  All Rights Reserved.

Type 'help' for a list of available commands.
Type 'help' followed by a command name for more
information on commands.

CPLEX> Logfile 'cplex.log' closed.
Logfile 'C:\Users\llavin\Desktop\test919\logs\tmp34mhpb1_.cplex.log' open.
CPLEX> New value for parallel optimization mode: -1
CPLEX> New value for mixed integer optimality gap tolerance: 0.01
CPLEX> New value for integrality tolerance: 1e-09
CPLEX> New value for feasibility tolerance: 0.01
CPLEX> New value for deterministic time limit in ticks: 100000
CPLEX> Problem 'C:\Users\llavin\Desktop\test919\logs\tmpe6vqv2nk.pyomo.lp' read.
Read time = 0.22 sec. (13.88 ticks)
CPLEX> MIP start file 'C:\Users\llavin\Desktop\test919\logs\tmpcnb2vm0f.cplex.mst' read.
CPLEX> Problem name         : C:\Users\llavin\Desktop\test919\logs\tmpe6vqv2nk.pyomo.lp
Objective sense      : Maximize
Variables            :   54041  [Nneg: 1,  Box: 22526,  Free: 4416,
                                 Binary: 27098]
Objective nonzeros   :    9749
Linear constraints   :  122164  [Less: 40983,  Greater: 58612,  Equal: 22569]
  Nonzeros           :  288457
  RHS nonzeros       :   66982

Variables            : Min LB: -5000.000        Max UB: 1000000.       
Objective nonzeros   : Min   : 0.2250000        Max   : 2500.000       
Linear constraints   :
  Nonzeros           : Min   : 0.2250000        Max   : 1000000.       
  RHS nonzeros       : Min   : 0.2250000        Max   : 1000000.       
CPLEX> CPXPARAM_Parallel                                -1
CPXPARAM_Simplex_Tolerances_Feasibility          0.01
CPXPARAM_DetTimeLimit                            100000
CPXPARAM_MIP_Tolerances_MIPGap                   0.01
CPXPARAM_MIP_Tolerances_Integrality              1.0000000000000001e-09
Warning:  No solution found from 1 MIP starts.
Retaining values of one MIP start for possible repair.
Tried aggregator 3 times.
MIP Presolve eliminated 88098 rows and 19698 columns.
MIP Presolve added 3351 rows and 0 columns.
MIP Presolve modified 24545 coefficients.
Aggregator did 12842 substitutions.
Reduced MIP has 24575 rows, 20945 columns, and 68825 nonzeros.
Reduced MIP has 8293 binaries, 0 generals, 0 SOSs, and 0 indicators.
Presolve time = 0.28 sec. (171.82 ticks)
Probing fixed 419 vars, tightened 2928 bounds.
Probing time = 1.23 sec. (904.33 ticks)
Tried aggregator 2 times.
MIP Presolve eliminated 940 rows and 845 columns.
MIP Presolve modified 2211 coefficients.
Aggregator did 57 substitutions.
Reduced MIP has 23578 rows, 20043 columns, and 65924 nonzeros.
Reduced MIP has 7871 binaries, 0 generals, 0 SOSs, and 0 indicators.
Presolve time = 0.11 sec. (66.67 ticks)
Probing fixed 0 vars, tightened 3 bounds.
Probing time = 0.06 sec. (30.48 ticks)
Clique table members: 6483.
MIP emphasis: balance optimality and feasibility.
MIP search method: dynamic search.
Parallel mode: opportunistic, using up to 32 threads.
Root relaxation solution time = 0.31 sec. (421.68 ticks)

        Nodes                                         Cuts/
   Node  Left     Objective  IInf  Best Integer    Best Bound    ItCnt     Gap

      0     0        0.0000   655                      0.0000     3176         
*     0     0      integral     0        0.0000        0.0000     3176    0.00%
Elapsed time = 3.73 sec. (2577.63 ticks, tree = 0.01 MB, solutions = 1)

Root node processing (before b&c):
  Real time             =    3.75 sec. (2579.57 ticks)
Parallel b&c, 32 threads:
  Real time             =    0.00 sec. (0.00 ticks)
  Sync time (average)   =    0.00 sec.
  Wait time (average)   =    0.00 sec.
                          ------------
Total (root+branch&cut) =    3.75 sec. (2579.57 ticks)

Solution pool: 1 solution saved.

MIP - Integer optimal solution:  Objective =  9.4041752163e-10
Solution time =    3.75 sec.  Iterations = 3176  Nodes = 0
Deterministic time = 2579.73 ticks  (687.93 ticks/sec)

CPLEX> Incumbent solution written to file 'C:\Users\llavin\Desktop\test919\logs\tmpxg9g8dtb.cplex.sol'.
CPLEX> Exporting results... 
